p cnf 20 30
18 -10 0
-6 18 0
8 3 0
-8 20 0
5 -10 0
-2 15 0
17 18 0
12 15 0
-14 -3 0
8 -1 0
-6 13 0
18 10 0
4 5 0
20 -11 0
-11 7 0
18 20 0
-13 -19 0
-14 3 0
-15 -3 0
-18 -2 0
-14 19 0
19 12 0
-13 -19 0
6 -17 0
1 14 0
-16 -7 0
4 20 0
-7 -19 0
10 -13 0
12 -11 0
